(declare-const X String)
; tv\u{2E}180solutions\u{2E}com\s+have\s+Dayspassword\u{3B}0\u{3B}Incorrect
(assert (not (str.in_re X (re.++ (str.to_re "tv.180solutions.com") (re.+ (re.union (str.to_re " ") (str.to_re "\u{9}") (str.to_re "\u{a}") (str.to_re "\u{c}") (str.to_re "\u{d}"))) (str.to_re "have") (re.+ (re.union (str.to_re " ") (str.to_re "\u{9}") (str.to_re "\u{a}") (str.to_re "\u{c}") (str.to_re "\u{d}"))) (str.to_re "Dayspassword;0;Incorrect\u{a}")))))
; (^\d{3}\u{2E}\d{3}\u{2E}\d{3}\u{2D}\d{2}$)
(assert (str.in_re X (re.++ (str.to_re "\u{a}") ((_ re.loop 3 3) (re.range "0" "9")) (str.to_re ".") ((_ re.loop 3 3) (re.range "0" "9")) (str.to_re ".") ((_ re.loop 3 3) (re.range "0" "9")) (str.to_re "-") ((_ re.loop 2 2) (re.range "0" "9")))))
; (\b(1|2|3|4|5|6|7|8|9)?[0-9]\b)
(assert (str.in_re X (re.++ (str.to_re "\u{a}") (re.opt (re.union (str.to_re "1") (str.to_re "2") (str.to_re "3") (str.to_re "4") (str.to_re "5") (str.to_re "6") (str.to_re "7") (str.to_re "8") (str.to_re "9"))) (re.range "0" "9"))))
; version\s+error\*\-\*WrongUser-Agent\u{3A}com\u{2F}index\.php\?tpid=
(assert (str.in_re X (re.++ (str.to_re "version") (re.+ (re.union (str.to_re " ") (str.to_re "\u{9}") (str.to_re "\u{a}") (str.to_re "\u{c}") (str.to_re "\u{d}"))) (str.to_re "error*-*WrongUser-Agent:com/index.php?tpid=\u{a}"))))
; toolbarplace\u{2E}com.*TencentTraveler\d+\u{2F}newsurfer4\u{2F}.*BysooTBADdcww\u{2E}dmcast\u{2E}com
(assert (not (str.in_re X (re.++ (str.to_re "toolbarplace.com") (re.* re.allchar) (str.to_re "TencentTraveler") (re.+ (re.range "0" "9")) (str.to_re "/newsurfer4/") (re.* re.allchar) (str.to_re "BysooTBADdcww.dmcast.com\u{a}")))))
(check-sat)
